p cnf 30 30
17 13 -14 0
29 -6 1 0
-7 1 13 0
5 -27 -17 0
25 13 14 0
-3 -14 1 0
14 -3 -28 0
17 12 -24 0
-11 14 13 0
-4 6 1 0
-7 -17 8 0
-7 -28 5 0
-11 13 4 0
19 -21 -17 0
25 22 7 0
8 -30 -7 0
6 -17 27 0
-11 -24 -23 0
-16 -11 -14 0
-27 -26 25 0
-27 8 -1 0
-25 26 -11 0
22 -2 -12 0
13 -2 3 0
30 26 22 0
-12 -28 -19 0
12 9 18 0
-18 30 4 0
-3 26 24 0
7 -23 20 0
